NAME: random_points
TYPE: TSP
DIMENSION: 30
EDGE_WEIGHT_TYPE: EUC_2D
NODE_COORD_SECTION
1 79 37
2 32 54
3 63 74
4 32 87
5 62 38
6 94 62
7 38 89
8 82 27
9 50 68
10 30 2
11 42 84
12 47 94
13 79 14
14 6 40
15 63 49
16 23 18
17 45 84
18 53 77
19 90 62
20 51 22
21 28 89
22 98 66
23 73 36
24 80 52
25 69 25
26 44 73
27 97 49
28 59 88
29 25 75
30 19 94
EOF
